60
1 0 42
2 0 21
2 1 36
3 0 30
3 1 39
3 2 25
4 0 44
4 1 32
4 2 26
4 3 47
5 0 2
5 1 59
5 2 30
5 3 38
5 4 26
6 0 13
6 1 22
6 2 40
6 3 52
6 4 28
6 5 57
7 0 47
7 1 21
7 2 16
7 3 3
7 4 21
7 5 40
7 6 32
8 0 51
8 1 14
8 2 37
8 3 27
8 4 36
8 5 45
8 6 1
8 7 20
9 0 34
9 1 43
9 2 36
9 3 58
9 4 58
9 5 23
9 6 17
9 7 18
9 8 55
10 0 3
10 1 34
10 2 5
10 3 47
10 4 34
10 5 29
10 6 26
10 7 15
10 8 7
10 9 35
11 0 5
11 1 35
11 2 40
11 3 16
11 4 31
11 5 55
11 6 21
11 7 1
11 8 49
11 9 48
11 10 34
12 0 57
12 1 42
12 2 55
12 3 27
12 4 8
12 5 44
12 6 7
12 7 3
12 8 3
12 9 15
12 10 57
12 11 25
13 0 33
13 1 9
13 2 28
13 3 27
13 4 27
13 5 35
13 6 40
13 7 6
13 8 37
13 9 22
13 10 24
13 11 16
13 12 20
14 0 26
14 1 12
14 2 49
14 3 36
14 4 54
14 5 17
14 6 4
14 7 46
14 8 22
14 9 3
14 10 47
14 11 59
14 12 30
14 13 37
15 0 8
15 1 49
15 2 19
15 3 14
15 4 15
15 5 29
15 6 20
15 7 24
15 8 42
15 9 27
15 10 39
15 11 37
15 12 33
15 13 7
15 14 53
16 0 28
16 1 49
16 2 2
16 3 5
16 4 44
16 5 15
16 6 58
16 7 14
16 8 51
16 9 37
16 10 33
16 11 11
16 12 40
16 13 38
16 14 17
16 15 46
17 0 25
17 1 31
17 2 26
17 3 44
17 4 26
17 5 35
17 6 54
17 7 28
17 8 2
17 9 39
17 10 3
17 11 46
17 12 22
17 13 51
17 14 8
17 15 32
17 16 23
18 0 16
18 1 50
18 2 18
18 3 10
18 4 32
18 5 9
18 6 36
18 7 18
18 8 19
18 9 16
18 10 41
18 11 53
18 12 8
18 13 36
18 14 26
18 15 32
18 16 6
18 17 4
19 0 5
19 1 25
19 2 38
19 3 49
19 4 55
19 5 9
19 6 1
19 7 38
19 8 4
19 9 6
19 10 19
19 11 18
19 12 48
19 13 24
19 14 22
19 15 40
19 16 28
19 17 49
19 18 32
20 0 40
20 1 36
20 2 14
20 3 27
20 4 45
20 5 40
20 6 13
20 7 12
20 8 3
20 9 16
20 10 12
20 11 24
20 12 18
20 13 43
20 14 14
20 15 15
20 16 48
20 17 7
20 18 59
20 19 29
21 0 32
21 1 4
21 2 55
21 3 49
21 4 43
21 5 23
21 6 28
21 7 17
21 8 49
21 9 9
21 10 43
21 11 30
21 12 38
21 13 4
21 14 16
21 15 2
21 16 48
21 17 38
21 18 38
21 19 4
21 20 18
22 0 28
22 1 51
22 2 3
22 3 9
22 4 27
22 5 7
22 6 27
22 7 59
22 8 1
22 9 17
22 10 18
22 11 59
22 12 21
22 13 57
22 14 20
22 15 8
22 16 39
22 17 16
22 18 59
22 19 59
22 20 27
22 21 35
23 0 37
23 1 40
23 2 43
23 3 56
23 4 20
23 5 9
23 6 21
23 7 35
23 8 45
23 9 34
23 10 14
23 11 10
23 12 19
23 13 5
23 14 56
23 15 35
23 16 1
23 17 3
23 18 38
23 19 14
23 20 42
23 21 13
23 22 3
24 0 16
24 1 22
24 2 47
24 3 13
24 4 12
24 5 57
24 6 26
24 7 45
24 8 56
24 9 35
24 10 3
24 11 36
24 12 53
24 13 29
24 14 30
24 15 22
24 16 4
24 17 43
24 18 44
24 19 12
24 20 4
24 21 42
24 22 4
24 23 17
25 0 22
25 1 55
25 2 18
25 3 43
25 4 32
25 5 31
25 6 26
25 7 19
25 8 57
25 9 38
25 10 36
25 11 26
25 12 30
25 13 34
25 14 50
25 15 3
25 16 3
25 17 7
25 18 38
25 19 40
25 20 43
25 21 53
25 22 34
25 23 38
25 24 35
26 0 18
26 1 17
26 2 6
26 3 47
26 4 23
26 5 34
26 6 35
26 7 33
26 8 58
26 9 44
26 10 6
26 11 30
26 12 39
26 13 52
26 14 57
26 15 14
26 16 29
26 17 11
26 18 57
26 19 12
26 20 41
26 21 28
26 22 37
26 23 2
26 24 27
26 25 3
27 0 19
27 1 8
27 2 50
27 3 9
27 4 55
27 5 14
27 6 13
27 7 22
27 8 10
27 9 55
27 10 47
27 11 39
27 12 25
27 13 32
27 14 17
27 15 59
27 16 17
27 17 1
27 18 39
27 19 50
27 20 52
27 21 22
27 22 27
27 23 46
27 24 17
27 25 9
27 26 11
28 0 8
28 1 29
28 2 49
28 3 56
28 4 28
28 5 50
28 6 55
28 7 2
28 8 3
28 9 25
28 10 43
28 11 12
28 12 51
28 13 43
28 14 23
28 15 7
28 16 53
28 17 23
28 18 6
28 19 47
28 20 27
28 21 4
28 22 32
28 23 14
28 24 43
28 25 37
28 26 43
28 27 48
29 0 22
29 1 15
29 2 6
29 3 29
29 4 16
29 5 57
29 6 17
29 7 31
29 8 56
29 9 5
29 10 4
29 11 3
29 12 13
29 13 12
29 14 24
29 15 28
29 16 23
29 17 46
29 18 31
29 19 53
29 20 34
29 21 39
29 22 23
29 23 48
29 24 12
29 25 56
29 26 16
29 27 47
29 28 2
30 0 59
30 1 53
30 2 5
30 3 41
30 4 32
30 5 43
30 6 5
30 7 55
30 8 12
30 9 10
30 10 16
30 11 10
30 12 52
30 13 39
30 14 58
30 15 46
30 16 50
30 17 17
30 18 15
30 19 18
30 20 24
30 21 4
30 22 29
30 23 30
30 24 29
30 25 1
30 26 34
30 27 8
30 28 42
30 29 59
31 0 55
31 1 27
31 2 29
31 3 36
31 4 35
31 5 16
31 6 20
31 7 37
31 8 6
31 9 48
31 10 42
31 11 10
31 12 55
31 13 41
31 14 36
31 15 59
31 16 51
31 17 57
31 18 53
31 19 6
31 20 19
31 21 46
31 22 24
31 23 13
31 24 37
31 25 18
31 26 46
31 27 3
31 28 44
31 29 55
31 30 58
32 0 18
32 1 3
32 2 50
32 3 48
32 4 48
32 5 59
32 6 25
32 7 41
32 8 22
32 9 45
32 10 20
32 11 53
32 12 56
32 13 29
32 14 51
32 15 44
32 16 39
32 17 18
32 18 15
32 19 27
32 20 18
32 21 34
32 22 48
32 23 46
32 24 42
32 25 55
32 26 12
32 27 33
32 28 59
32 29 56
32 30 7
32 31 42
33 0 27
33 1 47
33 2 15
33 3 32
33 4 42
33 5 45
33 6 20
33 7 11
33 8 32
33 9 59
33 10 36
33 11 34
33 12 13
33 13 37
33 14 53
33 15 21
33 16 24
33 17 54
33 18 18
33 19 37
33 20 5
33 21 29
33 22 17
33 23 17
33 24 43
33 25 28
33 26 13
33 27 32
33 28 58
33 29 21
33 30 6
33 31 43
33 32 31
34 0 38
34 1 59
34 2 31
34 3 49
34 4 45
34 5 5
34 6 23
34 7 44
34 8 52
34 9 32
34 10 29
34 11 40
34 12 18
34 13 51
34 14 39
34 15 21
34 16 54
34 17 6
34 18 8
34 19 30
34 20 42
34 21 55
34 22 57
34 23 3
34 24 18
34 25 6
34 26 41
34 27 35
34 28 6
34 29 10
34 30 16
34 31 24
34 32 25
34 33 42
35 0 26
35 1 54
35 2 48
35 3 36
35 4 24
35 5 39
35 6 17
35 7 47
35 8 54
35 9 6
35 10 16
35 11 47
35 12 34
35 13 55
35 14 36
35 15 51
35 16 47
35 17 22
35 18 33
35 19 27
35 20 38
35 21 1
35 22 55
35 23 27
35 24 42
35 25 3
35 26 55
35 27 33
35 28 32
35 29 48
35 30 51
35 31 15
35 32 24
35 33 10
35 34 8
36 0 47
36 1 25
36 2 4
36 3 17
36 4 50
36 5 7
36 6 25
36 7 38
36 8 38
36 9 11
36 10 52
36 11 59
36 12 12
36 13 7
36 14 24
36 15 33
36 16 27
36 17 29
36 18 35
36 19 55
36 20 40
36 21 32
36 22 12
36 23 39
36 24 25
36 25 10
36 26 19
36 27 2
36 28 54
36 29 25
36 30 4
36 31 55
36 32 33
36 33 15
36 34 51
36 35 48
37 0 3
37 1 53
37 2 37
37 3 20
37 4 19
37 5 20
37 6 23
37 7 11
37 8 1
37 9 43
37 10 12
37 11 59
37 12 34
37 13 33
37 14 23
37 15 24
37 16 3
37 17 58
37 18 30
37 19 44
37 20 59
37 21 48
37 22 25
37 23 3
37 24 17
37 25 54
37 26 32
37 27 56
37 28 43
37 29 48
37 30 7
37 31 3
37 32 37
37 33 8
37 34 54
37 35 41
37 36 47
38 0 8
38 1 1
38 2 4
38 3 38
38 4 1
38 5 15
38 6 26
38 7 27
38 8 16
38 9 40
38 10 34
38 11 44
38 12 9
38 13 7
38 14 47
38 15 26
38 16 41
38 17 32
38 18 23
38 19 24
38 20 18
38 21 57
38 22 55
38 23 14
38 24 40
38 25 5
38 26 6
38 27 42
38 28 21
38 29 40
38 30 58
38 31 1
38 32 28
38 33 48
38 34 42
38 35 48
38 36 33
38 37 4
39 0 13
39 1 44
39 2 2
39 3 27
39 4 15
39 5 50
39 6 3
39 7 54
39 8 7
39 9 3
39 10 2
39 11 4
39 12 37
39 13 43
39 14 31
39 15 11
39 16 13
39 17 3
39 18 40
39 19 14
39 20 25
39 21 21
39 22 9
39 23 31
39 24 55
39 25 3
39 26 36
39 27 15
39 28 59
39 29 42
39 30 45
39 31 3
39 32 2
39 33 14
39 34 39
39 35 26
39 36 26
39 37 25
39 38 5
40 0 30
40 1 12
40 2 9
40 3 41
40 4 23
40 5 48
40 6 11
40 7 32
40 8 29
40 9 14
40 10 14
40 11 17
40 12 19
40 13 23
40 14 37
40 15 52
40 16 18
40 17 13
40 18 4
40 19 37
40 20 22
40 21 5
40 22 1
40 23 16
40 24 41
40 25 26
40 26 48
40 27 58
40 28 8
40 29 46
40 30 31
40 31 35
40 32 15
40 33 20
40 34 14
40 35 38
40 36 53
40 37 6
40 38 12
40 39 52
41 0 46
41 1 3
41 2 57
41 3 19
41 4 19
41 5 50
41 6 34
41 7 59
41 8 11
41 9 3
41 10 20
41 11 1
41 12 43
41 13 56
41 14 54
41 15 38
41 16 30
41 17 23
41 18 27
41 19 23
41 20 48
41 21 10
41 22 13
41 23 23
41 24 22
41 25 4
41 26 54
41 27 32
41 28 5
41 29 13
41 30 44
41 31 11
41 32 26
41 33 54
41 34 36
41 35 21
41 36 35
41 37 35
41 38 17
41 39 46
41 40 38
42 0 42
42 1 20
42 2 12
42 3 27
42 4 57
42 5 9
42 6 43
42 7 5
42 8 47
42 9 23
42 10 17
42 11 36
42 12 15
42 13 36
42 14 16
42 15 50
42 16 43
42 17 58
42 18 11
42 19 29
42 20 2
42 21 17
42 22 41
42 23 31
42 24 43
42 25 42
42 26 15
42 27 48
42 28 57
42 29 54
42 30 42
42 31 29
42 32 3
42 33 42
42 34 3
42 35 17
42 36 24
42 37 58
42 38 19
42 39 7
42 40 58
42 41 59
43 0 39
43 1 31
43 2 53
43 3 54
43 4 34
43 5 35
43 6 3
43 7 27
43 8 9
43 9 48
43 10 4
43 11 57
43 12 50
43 13 38
43 14 39
43 15 1
43 16 47
43 17 2
43 18 20
43 19 43
43 20 6
43 21 55
43 22 58
43 23 19
43 24 25
43 25 36
43 26 55
43 27 22
43 28 37
43 29 27
43 30 18
43 31 53
43 32 39
43 33 26
43 34 50
43 35 27
43 36 41
43 37 23
43 38 36
43 39 36
43 40 14
43 41 50
43 42 4
44 0 30
44 1 45
44 2 7
44 3 37
44 4 31
44 5 6
44 6 43
44 7 38
44 8 6
44 9 34
44 10 37
44 11 7
44 12 20
44 13 41
44 14 27
44 15 11
44 16 50
44 17 48
44 18 6
44 19 37
44 20 59
44 21 3
44 22 9
44 23 9
44 24 41
44 25 37
44 26 57
44 27 22
44 28 56
44 29 1
44 30 38
44 31 26
44 32 17
44 33 47
44 34 53
44 35 49
44 36 32
44 37 13
44 38 47
44 39 55
44 40 36
44 41 36
44 42 35
44 43 14
45 0 11
45 1 17
45 2 34
45 3 18
45 4 37
45 5 31
45 6 16
45 7 52
45 8 30
45 9 47
45 10 25
45 11 43
45 12 16
45 13 29
45 14 57
45 15 18
45 16 19
45 17 23
45 18 24
45 19 53
45 20 21
45 21 2
45 22 43
45 23 17
45 24 41
45 25 39
45 26 36
45 27 52
45 28 57
45 29 6
45 30 24
45 31 47
45 32 36
45 33 13
45 34 25
45 35 25
45 36 37
45 37 26
45 38 24
45 39 33
45 40 55
45 41 34
45 42 1
45 43 54
45 44 2
46 0 2
46 1 4
46 2 45
46 3 54
46 4 7
46 5 36
46 6 54
46 7 31
46 8 52
46 9 2
46 10 22
46 11 53
46 12 52
46 13 4
46 14 22
46 15 9
46 16 48
46 17 6
46 18 29
46 19 42
46 20 35
46 21 15
46 22 15
46 23 31
46 24 48
46 25 13
46 26 17
46 27 10
46 28 17
46 29 42
46 30 58
46 31 4
46 32 13
46 33 58
46 34 9
46 35 15
46 36 18
46 37 1
46 38 19
46 39 18
46 40 31
46 41 2
46 42 22
46 43 30
46 44 53
46 45 34
47 0 56
47 1 23
47 2 59
47 3 15
47 4 47
47 5 59
47 6 11
47 7 5
47 8 34
47 9 41
47 10 55
47 11 44
47 12 21
47 13 29
47 14 37
47 15 18
47 16 38
47 17 44
47 18 43
47 19 25
47 20 25
47 21 17
47 22 58
47 23 40
47 24 43
47 25 59
47 26 32
47 27 48
47 28 54
47 29 15
47 30 43
47 31 8
47 32 24
47 33 11
47 34 54
47 35 4
47 36 28
47 37 21
47 38 54
47 39 44
47 40 45
47 41 23
47 42 45
47 43 17
47 44 12
47 45 35
47 46 36
48 0 43
48 1 38
48 2 43
48 3 27
48 4 15
48 5 31
48 6 24
48 7 38
48 8 58
48 9 10
48 10 44
48 11 22
48 12 13
48 13 39
48 14 18
48 15 58
48 16 18
48 17 16
48 18 21
48 19 16
48 20 15
48 21 8
48 22 9
48 23 26
48 24 58
48 25 24
48 26 37
48 27 21
48 28 33
48 29 1
48 30 39
48 31 4
48 32 57
48 33 14
48 34 1
48 35 7
48 36 23
48 37 4
48 38 26
48 39 42
48 40 43
48 41 36
48 42 30
48 43 50
48 44 3
48 45 40
48 46 18
48 47 20
49 0 18
49 1 24
49 2 5
49 3 51
49 4 14
49 5 43
49 6 13
49 7 37
49 8 20
49 9 40
49 10 17
49 11 28
49 12 38
49 13 11
49 14 18
49 15 12
49 16 12
49 17 42
49 18 57
49 19 43
49 20 56
49 21 45
49 22 42
49 23 9
49 24 3
49 25 24
49 26 5
49 27 46
49 28 56
49 29 5
49 30 25
49 31 10
49 32 59
49 33 27
49 34 56
49 35 4
49 36 3
49 37 5
49 38 52
49 39 8
49 40 21
49 41 1
49 42 10
49 43 6
49 44 3
49 45 54
49 46 42
49 47 8
49 48 46
50 0 58
50 1 20
50 2 8
50 3 12
50 4 57
50 5 5
50 6 54
50 7 33
50 8 53
50 9 15
50 10 26
50 11 31
50 12 32
50 13 19
50 14 58
50 15 57
50 16 28
50 17 52
50 18 21
50 19 27
50 20 29
50 21 2
50 22 53
50 23 28
50 24 35
50 25 58
50 26 54
50 27 43
50 28 40
50 29 34
50 30 24
50 31 13
50 32 6
50 33 18
50 34 34
50 35 37
50 36 14
50 37 58
50 38 34
50 39 20
50 40 58
50 41 39
50 42 7
50 43 20
50 44 43
50 45 14
50 46 57
50 47 28
50 48 21
50 49 18
51 0 49
51 1 55
51 2 10
51 3 8
51 4 42
51 5 8
51 6 49
51 7 20
51 8 55
51 9 8
51 10 47
51 11 10
51 12 29
51 13 19
51 14 42
51 15 32
51 16 9
51 17 56
51 18 50
51 19 23
51 20 45
51 21 56
51 22 30
51 23 57
51 24 36
51 25 59
51 26 59
51 27 2
51 28 34
51 29 33
51 30 25
51 31 7
51 32 46
51 33 42
51 34 49
51 35 13
51 36 40
51 37 47
51 38 58
51 39 54
51 40 54
51 41 14
51 42 58
51 43 25
51 44 25
51 45 7
51 46 40
51 47 9
51 48 27
51 49 9
51 50 19
52 0 54
52 1 44
52 2 28
52 3 58
52 4 46
52 5 47
52 6 5
52 7 46
52 8 10
52 9 58
52 10 3
52 11 57
52 12 41
52 13 11
52 14 47
52 15 10
52 16 59
52 17 51
52 18 55
52 19 35
52 20 20
52 21 59
52 22 31
52 23 48
52 24 51
52 25 13
52 26 57
52 27 36
52 28 47
52 29 1
52 30 34
52 31 57
52 32 51
52 33 57
52 34 34
52 35 54
52 36 47
52 37 10
52 38 16
52 39 11
52 40 45
52 41 42
52 42 34
52 43 43
52 44 57
52 45 16
52 46 4
52 47 29
52 48 48
52 49 42
52 50 6
52 51 6
53 0 17
53 1 8
53 2 5
53 3 18
53 4 42
53 5 27
53 6 33
53 7 18
53 8 41
53 9 51
53 10 50
53 11 24
53 12 9
53 13 30
53 14 27
53 15 32
53 16 42
53 17 21
53 18 18
53 19 33
53 20 36
53 21 2
53 22 37
53 23 30
53 24 26
53 25 1
53 26 11
53 27 8
53 28 43
53 29 37
53 30 59
53 31 21
53 32 33
53 33 43
53 34 36
53 35 27
53 36 52
53 37 48
53 38 54
53 39 22
53 40 38
53 41 4
53 42 57
53 43 6
53 44 28
53 45 43
53 46 1
53 47 10
53 48 21
53 49 37
53 50 4
53 51 53
53 52 16
54 0 37
54 1 33
54 2 36
54 3 11
54 4 41
54 5 44
54 6 4
54 7 30
54 8 31
54 9 25
54 10 5
54 11 1
54 12 6
54 13 25
54 14 44
54 15 1
54 16 34
54 17 29
54 18 42
54 19 1
54 20 14
54 21 19
54 22 52
54 23 12
54 24 43
54 25 44
54 26 51
54 27 39
54 28 27
54 29 37
54 30 32
54 31 2
54 32 4
54 33 38
54 34 24
54 35 56
54 36 24
54 37 14
54 38 22
54 39 42
54 40 18
54 41 20
54 42 29
54 43 38
54 44 58
54 45 33
54 46 39
54 47 33
54 48 11
54 49 9
54 50 6
54 51 53
54 52 6
54 53 46
55 0 29
55 1 32
55 2 52
55 3 50
55 4 52
55 5 44
55 6 2
55 7 11
55 8 32
55 9 56
55 10 16
55 11 5
55 12 54
55 13 7
55 14 37
55 15 5
55 16 49
55 17 38
55 18 26
55 19 54
55 20 48
55 21 39
55 22 10
55 23 42
55 24 15
55 25 42
55 26 45
55 27 13
55 28 38
55 29 58
55 30 1
55 31 36
55 32 8
55 33 28
55 34 21
55 35 12
55 36 14
55 37 50
55 38 48
55 39 11
55 40 19
55 41 53
55 42 12
55 43 6
55 44 15
55 45 45
55 46 41
55 47 42
55 48 25
55 49 29
55 50 28
55 51 33
55 52 43
55 53 26
55 54 54
56 0 18
56 1 41
56 2 32
56 3 38
56 4 29
56 5 22
56 6 44
56 7 26
56 8 35
56 9 57
56 10 49
56 11 41
56 12 30
56 13 14
56 14 29
56 15 3
56 16 20
56 17 8
56 18 36
56 19 13
56 20 50
56 21 14
56 22 40
56 23 24
56 24 30
56 25 50
56 26 14
56 27 34
56 28 56
56 29 2
56 30 34
56 31 34
56 32 32
56 33 42
56 34 56
56 35 54
56 36 17
56 37 44
56 38 20
56 39 34
56 40 4
56 41 36
56 42 17
56 43 19
56 44 10
56 45 59
56 46 25
56 47 17
56 48 36
56 49 37
56 50 41
56 51 43
56 52 34
56 53 51
56 54 26
56 55 26
57 0 57
57 1 6
57 2 46
57 3 2
57 4 1
57 5 5
57 6 57
57 7 4
57 8 27
57 9 14
57 10 44
57 11 56
57 12 30
57 13 12
57 14 43
57 15 49
57 16 51
57 17 45
57 18 27
57 19 4
57 20 25
57 21 1
57 22 38
57 23 56
57 24 17
57 25 21
57 26 39
57 27 41
57 28 32
57 29 51
57 30 23
57 31 3
57 32 35
57 33 57
57 34 54
57 35 49
57 36 3
57 37 19
57 38 46
57 39 24
57 40 51
57 41 50
57 42 38
57 43 52
57 44 36
57 45 38
57 46 38
57 47 19
57 48 27
57 49 41
57 50 50
57 51 40
57 52 21
57 53 35
57 54 28
57 55 49
57 56 1
58 0 20
58 1 56
58 2 8
58 3 10
58 4 14
58 5 40
58 6 25
58 7 1
58 8 31
58 9 24
58 10 9
58 11 41
58 12 53
58 13 30
58 14 18
58 15 26
58 16 20
58 17 20
58 18 14
58 19 38
58 20 2
58 21 40
58 22 30
58 23 53
58 24 43
58 25 56
58 26 23
58 27 53
58 28 31
58 29 37
58 30 37
58 31 46
58 32 31
58 33 59
58 34 38
58 35 56
58 36 46
58 37 19
58 38 20
58 39 59
58 40 44
58 41 57
58 42 53
58 43 56
58 44 4
58 45 1
58 46 35
58 47 46
58 48 16
58 49 29
58 50 22
58 51 20
58 52 51
58 53 18
58 54 36
58 55 53
58 56 49
58 57 15
59 0 26
59 1 55
59 2 30
59 3 7
59 4 29
59 5 58
59 6 26
59 7 12
59 8 1
59 9 33
59 10 34
59 11 14
59 12 38
59 13 28
59 14 59
59 15 21
59 16 16
59 17 17
59 18 49
59 19 32
59 20 51
59 21 23
59 22 27
59 23 47
59 24 5
59 25 6
59 26 45
59 27 49
59 28 13
59 29 50
59 30 8
59 31 16
59 32 35
59 33 14
59 34 41
59 35 23
59 36 32
59 37 30
59 38 35
59 39 3
59 40 38
59 41 51
59 42 37
59 43 12
59 44 46
59 45 32
59 46 32
59 47 21
59 48 15
59 49 33
59 50 26
59 51 44
59 52 54
59 53 42
59 54 30
59 55 57
59 56 4
59 57 59
59 58 55
